NAME: 7TDVRP
COMMENT: 7 locations in Saratov (one of them is a store where goods are delivered from)
DIMENSION: 7
EDGE_WEIGHT_TYPE: EXPLICIT
EDGE_WEIGHT_FORMAT: UPPER_ROW 
DISPLAY_DATA_TYPE: TWOD_DISPLAY
EDGE_WEIGHT_SECTION

DISPLAY_DATA_SECTION
 1   500.0  9530.0
 2  5180.0  9720.0
 3  5140.0   970.0
 4   510.0  9410.0
 5  5180.0  9390.0
 6  5070.0  9020.0
 7  5220.0  9580.0

